8134
39, 40, 38, 15, 6, 5, 24, 48, 37, 36, 49, 22, 31, 18, 3, 17, 21, 42, 7, 2, 30, 29, 16, 50, 20, 23, 1, 32, 45, 19, 41, 8, 9, 10, 33, 43, 4, 25, 12, 51, 11, 52, 14, 13, 47, 26, 27, 28, 46, 44, 34, 35
